(set-info :smt-lib-version 2.6)
(set-logic QF_BV)
(set-info :source |
 Patrice Godefroid, SAGE (systematic dynamic test generation)
 For more information: http://research.microsoft.com/en-us/um/people/pg/public_psfiles/ndss2008.pdf
|)
(set-info :category "industrial")
(set-info :status unsat)
(declare-fun T4_28 () (_ BitVec 32))
(declare-fun T4_16 () (_ BitVec 32))
(declare-fun T4_4 () (_ BitVec 32))
(declare-fun T4_92 () (_ BitVec 32))
(declare-fun T4_104 () (_ BitVec 32))
(declare-fun T1_104 () (_ BitVec 8))
(declare-fun T1_105 () (_ BitVec 8))
(declare-fun T1_106 () (_ BitVec 8))
(declare-fun T1_107 () (_ BitVec 8))
(declare-fun T1_92 () (_ BitVec 8))
(declare-fun T1_93 () (_ BitVec 8))
(declare-fun T1_94 () (_ BitVec 8))
(declare-fun T1_95 () (_ BitVec 8))
(declare-fun T1_28 () (_ BitVec 8))
(declare-fun T1_29 () (_ BitVec 8))
(declare-fun T1_30 () (_ BitVec 8))
(declare-fun T1_31 () (_ BitVec 8))
(declare-fun T1_16 () (_ BitVec 8))
(declare-fun T1_17 () (_ BitVec 8))
(declare-fun T1_18 () (_ BitVec 8))
(declare-fun T1_19 () (_ BitVec 8))
(declare-fun T1_4 () (_ BitVec 8))
(declare-fun T1_5 () (_ BitVec 8))
(declare-fun T1_6 () (_ BitVec 8))
(declare-fun T1_7 () (_ BitVec 8))
(assert (let ((?v_4 (bvadd T4_28 (_ bv32 32)))) (let ((?v_53 (bvsub (_ bv65536 32) (bvadd ?v_4 (_ bv52 32)))) (?v_52 (bvadd T4_16 (_ bv19 32)))) (let ((?v_54 (bvsub (_ bv0 32) ((_ zero_extend 24) (ite (bvult ?v_53 (_ bv0 32)) (_ bv1 8) (_ bv0 8)))))) (let ((?v_55 (bvule ?v_54 (_ bv0 32))) (?v_47 (bvadd T4_28 (_ bv40 32)))) (let ((?v_51 (bvadd T4_92 ?v_47)) (?v_50 (bvsub (_ bv65536 32) ?v_4)) (?v_49 (bvadd T4_28 (_ bv141164648 32))) (?v_48 (bvadd T4_28 (_ bv141164652 32))) (?v_46 (bvadd T4_92 ?v_4))) (let ((?v_45 (bvadd ?v_46 (_ bv7 32))) (?v_43 (bvadd ?v_4 (_ bv20 32)))) (let ((?v_44 (bvadd T4_104 ?v_43)) (?v_42 (bvsub (_ bv65536 32) (bvadd ?v_4 (_ bv12 32)))) (?v_41 (bvsub (_ bv65536 32) (bvadd ?v_4 (_ bv16 32)))) (?v_40 (bvsub (_ bv65536 32) ?v_43)) (?v_39 (bvsub (_ bv65536 32) (bvadd ?v_4 (_ bv24 32)))) (?v_38 (bvsub (_ bv65536 32) (bvadd ?v_4 (_ bv28 32)))) (?v_37 (bvsub (_ bv65536 32) (bvadd ?v_4 (_ bv32 32)))) (?v_36 (bvsub (_ bv65536 32) (bvadd ?v_4 (_ bv34 32)))) (?v_35 (bvsub (_ bv65536 32) (bvadd ?v_4 (_ bv36 32)))) (?v_34 (bvsub (_ bv65536 32) (bvadd ?v_4 (_ bv40 32)))) (?v_33 (bvsub (_ bv65536 32) (bvadd ?v_4 (_ bv44 32)))) (?v_32 (bvsub (_ bv65536 32) (bvadd ?v_4 (_ bv48 32)))) (?v_31 (bvsub (_ bv65536 32) (bvadd T4_28 (_ bv36 32)))) (?v_30 (bvsub (_ bv65536 32) ?v_47)) (?v_29 (bvult (_ bv4 32) T4_4)) (?v_27 (bvsub (_ bv0 32) ((_ zero_extend 24) (ite (bvult ?v_50 (_ bv0 32)) (_ bv1 8) (_ bv0 8)))))) (let ((?v_28 (bvule ?v_27 (_ bv0 32))) (?v_25 (bvsub (_ bv0 32) ((_ zero_extend 24) (ite (bvult ?v_42 (_ bv0 32)) (_ bv1 8) (_ bv0 8)))))) (let ((?v_26 (bvule ?v_25 (_ bv0 32))) (?v_23 (bvsub (_ bv0 32) ((_ zero_extend 24) (ite (bvult ?v_41 (_ bv0 32)) (_ bv1 8) (_ bv0 8)))))) (let ((?v_24 (bvule ?v_23 (_ bv0 32))) (?v_21 (bvsub (_ bv0 32) ((_ zero_extend 24) (ite (bvult ?v_40 (_ bv0 32)) (_ bv1 8) (_ bv0 8)))))) (let ((?v_22 (bvule ?v_21 (_ bv0 32))) (?v_19 (bvsub (_ bv0 32) ((_ zero_extend 24) (ite (bvult ?v_39 (_ bv0 32)) (_ bv1 8) (_ bv0 8)))))) (let ((?v_20 (bvule ?v_19 (_ bv0 32))) (?v_17 (bvsub (_ bv0 32) ((_ zero_extend 24) (ite (bvult ?v_38 (_ bv0 32)) (_ bv1 8) (_ bv0 8)))))) (let ((?v_18 (bvule ?v_17 (_ bv0 32))) (?v_15 (bvsub (_ bv0 32) ((_ zero_extend 24) (ite (bvult ?v_37 (_ bv0 32)) (_ bv1 8) (_ bv0 8)))))) (let ((?v_16 (bvule ?v_15 (_ bv0 32))) (?v_13 (bvsub (_ bv0 32) ((_ zero_extend 24) (ite (bvult ?v_36 (_ bv0 32)) (_ bv1 8) (_ bv0 8)))))) (let ((?v_14 (bvule ?v_13 (_ bv0 32))) (?v_11 (bvsub (_ bv0 32) ((_ zero_extend 24) (ite (bvult ?v_35 (_ bv0 32)) (_ bv1 8) (_ bv0 8)))))) (let ((?v_12 (bvule ?v_11 (_ bv0 32))) (?v_9 (bvsub (_ bv0 32) ((_ zero_extend 24) (ite (bvult ?v_34 (_ bv0 32)) (_ bv1 8) (_ bv0 8)))))) (let ((?v_10 (bvule ?v_9 (_ bv0 32))) (?v_7 (bvsub (_ bv0 32) ((_ zero_extend 24) (ite (bvult ?v_33 (_ bv0 32)) (_ bv1 8) (_ bv0 8)))))) (let ((?v_8 (bvule ?v_7 (_ bv0 32))) (?v_5 (bvsub (_ bv0 32) ((_ zero_extend 24) (ite (bvult ?v_32 (_ bv0 32)) (_ bv1 8) (_ bv0 8)))))) (let ((?v_6 (bvule ?v_5 (_ bv0 32))) (?v_2 (bvsub (_ bv0 32) ((_ zero_extend 24) (ite (bvult ?v_31 (_ bv0 32)) (_ bv1 8) (_ bv0 8)))))) (let ((?v_3 (bvule ?v_2 (_ bv0 32))) (?v_0 (bvsub (_ bv0 32) ((_ zero_extend 24) (ite (bvult ?v_30 (_ bv0 32)) (_ bv1 8) (_ bv0 8)))))) (let ((?v_1 (bvule ?v_0 (_ bv0 32)))) (and true (= T4_4 (bvor (bvshl (bvor (bvshl (bvor (bvshl ((_ zero_extend 24) T1_7) (_ bv8 32)) ((_ zero_extend 24) T1_6)) (_ bv8 32)) ((_ zero_extend 24) T1_5)) (_ bv8 32)) ((_ zero_extend 24) T1_4))) (= T4_16 (bvor (bvshl (bvor (bvshl (bvor (bvshl ((_ zero_extend 24) T1_19) (_ bv8 32)) ((_ zero_extend 24) T1_18)) (_ bv8 32)) ((_ zero_extend 24) T1_17)) (_ bv8 32)) ((_ zero_extend 24) T1_16))) (= T4_28 (bvor (bvshl (bvor (bvshl (bvor (bvshl ((_ zero_extend 24) T1_31) (_ bv8 32)) ((_ zero_extend 24) T1_30)) (_ bv8 32)) ((_ zero_extend 24) T1_29)) (_ bv8 32)) ((_ zero_extend 24) T1_28))) (= T4_92 (bvor (bvshl (bvor (bvshl (bvor (bvshl ((_ zero_extend 24) T1_95) (_ bv8 32)) ((_ zero_extend 24) T1_94)) (_ bv8 32)) ((_ zero_extend 24) T1_93)) (_ bv8 32)) ((_ zero_extend 24) T1_92))) (= T4_104 (bvor (bvshl (bvor (bvshl (bvor (bvshl ((_ zero_extend 24) T1_107) (_ bv8 32)) ((_ zero_extend 24) T1_106)) (_ bv8 32)) ((_ zero_extend 24) T1_105)) (_ bv8 32)) ((_ zero_extend 24) T1_104))) (bvule ?v_53 (_ bv4 32)) ?v_1 (bvule (_ bv0 32) ?v_0) ?v_1 ?v_3 (bvule (_ bv0 32) ?v_2) ?v_3 ?v_6 (bvule (_ bv0 32) ?v_5) ?v_6 ?v_8 (bvule (_ bv0 32) ?v_7) ?v_8 ?v_10 (bvule (_ bv0 32) ?v_9) ?v_10 ?v_12 (bvule (_ bv0 32) ?v_11) ?v_12 ?v_14 (bvule (_ bv0 32) ?v_13) ?v_14 ?v_16 (bvule (_ bv0 32) ?v_15) ?v_16 ?v_18 (bvule (_ bv0 32) ?v_17) ?v_18 ?v_20 (bvule (_ bv0 32) ?v_19) ?v_20 ?v_22 (bvule (_ bv0 32) ?v_21) ?v_22 ?v_24 (bvule (_ bv0 32) ?v_23) ?v_24 ?v_26 (bvule (_ bv0 32) ?v_25) ?v_26 (bvule (bvadd T4_4 (_ bv8 32)) (_ bv573440 32)) (bvult (_ bv1 32) (bvsub (_ bv4294967295 32) ((_ zero_extend 24) (ite (bvult (bvsub (_ bv4294967295 32) ?v_4) (_ bv0 32)) (_ bv1 8) (_ bv0 8))))) ?v_28 (bvule (_ bv0 32) ?v_27) ?v_28 ?v_29 (not (= T4_4 (_ bv0 32))) ?v_29 (bvule (bvadd T4_16 (_ bv20 32)) (_ bv573440 32)) (bvult (_ bv4 32) ?v_30) (bvule (_ bv4 32) ?v_30) (not (= ?v_30 (_ bv0 32))) (bvult ?v_30 (_ bv200000000 32)) (bvult (_ bv4 32) ?v_31) (bvule (_ bv4 32) ?v_31) (not (= ?v_31 (_ bv0 32))) (bvult ?v_31 (_ bv200000000 32)) (bvult (_ bv4 32) ?v_32) (bvule (_ bv4 32) ?v_32) (not (= ?v_32 (_ bv0 32))) (bvult ?v_32 (_ bv200000000 32)) (bvult (_ bv4 32) ?v_33) (bvule (_ bv4 32) ?v_33) (not (= ?v_33 (_ bv0 32))) (bvult ?v_33 (_ bv200000000 32)) (bvult (_ bv4 32) ?v_34) (bvule (_ bv4 32) ?v_34) (not (= ?v_34 (_ bv0 32))) (bvult ?v_34 (_ bv200000000 32)) (bvult (_ bv4 32) ?v_35) (bvule (_ bv4 32) ?v_35) (not (= ?v_35 (_ bv0 32))) (bvult ?v_35 (_ bv200000000 32)) (bvult (_ bv2 32) ?v_36) (bvule (_ bv2 32) ?v_36) (not (= ?v_36 (_ bv0 32))) (bvult ?v_36 (_ bv200000000 32)) (bvult (_ bv2 32) ?v_37) (bvule (_ bv2 32) ?v_37) (not (= ?v_37 (_ bv0 32))) (bvult ?v_37 (_ bv200000000 32)) (bvult (_ bv4 32) ?v_38) (bvule (_ bv4 32) ?v_38) (not (= ?v_38 (_ bv0 32))) (bvult ?v_38 (_ bv200000000 32)) (bvult (_ bv4 32) ?v_39) (bvule (_ bv4 32) ?v_39) (not (= ?v_39 (_ bv0 32))) (bvult ?v_39 (_ bv200000000 32)) (bvult (_ bv4 32) ?v_40) (bvule (_ bv4 32) ?v_40) (not (= ?v_40 (_ bv0 32))) (bvult ?v_40 (_ bv200000000 32)) (= T4_104 (_ bv56 32)) (not (= T4_104 (_ bv0 32))) (bvult (_ bv4 32) ?v_41) (bvule (_ bv4 32) ?v_41) (not (= ?v_41 (_ bv0 32))) (bvult ?v_41 (_ bv200000000 32)) (bvult (_ bv4 32) ?v_42) (bvule (_ bv4 32) ?v_42) (not (= ?v_42 (_ bv0 32))) (bvult ?v_42 (_ bv200000000 32)) (bvule ?v_44 ?v_45) (bvule (bvadd ?v_44 (_ bv4294967295 32)) ?v_45) (bvule (bvadd ?v_46 (_ bv8 32)) (_ bv573440 32)) (bvult (_ bv4 32) T4_16) (bvule T4_16 (_ bv65516 32)) (not (= T4_16 (_ bv0 32))) (bvule (_ bv139327844 32) (bvadd T4_28 (_ bv141164656 32))) (bvule ?v_47 (_ bv65536 32)) (bvult ?v_47 (_ bv65536 32)) (bvule (_ bv139327764 32) ?v_48) (bvule (_ bv139327852 32) ?v_48) (bvule (_ bv139327792 32) ?v_49) (bvule (_ bv139327880 32) ?v_49) (bvule (_ bv139327796 32) (bvadd ?v_4 (_ bv141164644 32))) (bvule (_ bv4817124 32) (bvadd ?v_4 (_ bv141164640 32))) (bvule (_ bv139327932 32) (bvadd ?v_4 (_ bv141164636 32))) (bvule (_ bv139327724 32) (bvadd ?v_4 (_ bv141164632 32))) (bvule (_ bv139327752 32) (bvadd ?v_4 (_ bv141164628 32))) (bvult (_ bv4 32) T4_92) (not (= T4_92 (_ bv0 32))) (bvult (_ bv4 32) ?v_50) (bvule (_ bv4 32) ?v_50) (not (= ?v_50 (_ bv0 32))) (bvult ?v_50 (_ bv200000000 32)) (bvult ?v_52 ?v_51) (bvule (bvadd ?v_51 (_ bv4294967295 32)) ?v_52) (bvule (bvadd T4_28 (_ bv31 32)) ?v_52) (bvule ?v_52 (bvadd T4_4 (_ bv7 32))) (= T4_28 (_ bv56 32)) (not (= T4_28 (_ bv0 32))) ?v_55 (bvule (_ bv0 32) ?v_54) ?v_55 (bvult ?v_4 (_ bv65536 32)) (bvult (_ bv0 32) ?v_4) (bvule (_ bv0 32) ?v_4) (bvule ?v_4 ?v_52) (bvule (_ bv4 32) ?v_53) (not (= ?v_53 (_ bv0 32))) (bvult ?v_53 (_ bv200000000 32)))))))))))))))))))))))))
(check-sat)
(exit)
